\ LP format - for model browsing. Use MPS format to capture full model detail.
Maximize
  6 x_1 + 9 x_2 + 2 x_3 + 4 x_4 + 10 x_5 + 5 x_6 + 4 x_7 + 3 x_8 + 4 x_9
   + 7 x_10 + 7 x_11 + 2 x_12 + 3 x_13 + 9 x_14 + 9 x_15 + 10 x_16
   + 10 x_17 + x_18 + 3 x_19 + x_20 + 2 x_21 + 6 x_22 + 4 x_23 + 6 x_24
   + 8 x_25
Subject To
 C_1: 5 x_1 + 10 x_2 + 2 x_3 + x_4 + 6 x_5 + 10 x_6 + 6 x_7 + 6 x_8 + x_9
   + x_10 + 5 x_11 + 7 x_12 + 7 x_13 + 9 x_14 + 10 x_15 + 5 x_16 + 5 x_17
   + x_18 + 8 x_19 + 6 x_20 + 2 x_21 + 7 x_22 + 7 x_23 + 2 x_24 + 9 x_25
   <= 69
 C_2: 8 x_1 + 6 x_2 + 6 x_3 + x_4 + x_5 + 4 x_6 + 7 x_7 + 2 x_8 + 7 x_9
   + 8 x_10 + 9 x_11 + 6 x_12 + 5 x_13 + 5 x_14 + 9 x_15 + 8 x_16 + 9 x_17
   + 5 x_18 + 4 x_19 + 10 x_20 + 5 x_21 + 8 x_22 + 6 x_23 + 7 x_24 + 5 x_25
   <= 75
 C_3: x_1 + 10 x_2 + 3 x_3 + 8 x_4 + 4 x_5 + x_6 + 7 x_7 + 9 x_8 + 9 x_9
   + 7 x_10 + x_11 + 2 x_12 + 5 x_13 + 2 x_14 + 10 x_15 + 4 x_16 + x_17
   + 8 x_18 + 9 x_19 + 7 x_20 + 6 x_21 + 6 x_22 + 7 x_23 + 10 x_24 + x_25
   <= 69
 C_4: 6 x_1 + 6 x_2 + 8 x_3 + 2 x_4 + 5 x_5 + 5 x_6 + 4 x_7 + 4 x_8 + 7 x_9
   + x_10 + 7 x_11 + 10 x_12 + 9 x_13 + 7 x_14 + 8 x_15 + 7 x_16 + 7 x_17
   + x_18 + 2 x_19 + x_20 + 10 x_21 + 5 x_22 + 3 x_23 + 7 x_24 + 5 x_25
   <= 68
 C_5: 9 x_1 + 4 x_2 + 10 x_3 + 7 x_4 + 6 x_5 + 10 x_6 + 3 x_7 + x_8
   + 10 x_9 + 4 x_10 + 7 x_11 + 4 x_12 + 7 x_13 + 3 x_14 + 2 x_15 + 10 x_16
   + x_17 + 3 x_18 + 10 x_19 + 10 x_20 + 10 x_21 + 7 x_22 + 6 x_23 + 2 x_24
   + 8 x_25 <= 77
Bounds
Binaries
 x_1 x_2 x_3 x_4 x_5 x_6 x_7 x_8 x_9 x_10 x_11 x_12 x_13 x_14 x_15 x_16
 x_17 x_18 x_19 x_20 x_21 x_22 x_23 x_24 x_25
End
